9
2147483647 45 9 32 99 68 65 25 55 
45 2147483647 62 82 71 70 34 39 31 
9 62 2147483647 11 94 62 68 33 61 
32 82 11 2147483647 18 36 70 5 56 
99 71 94 18 2147483647 73 92 26 37 
68 70 62 36 73 2147483647 14 78 64 
65 34 68 70 92 14 2147483647 77 66 
25 39 33 5 26 78 77 2147483647 71 
55 31 61 56 37 64 66 71 2147483647 
